language ESSENCE' 1.0

letting jobs = 102
letting horizon = 787
letting resourcesRenew = 2
letting resourcesNonrenew = 2
letting resourceLimits = [22, 22, 170, 145]
letting successors = [[2, 3, 4, 5, 6, 7, 8, 11, 14], [31, 24, 23, 22, 21, 20, 19, 17, 15, 13], [31, 19, 17, 13, 10, 9], [42, 23, 20, 19, 17, 15, 10], [30, 29, 23, 19, 17, 16, 12], [34, 31, 23, 21, 20, 19, 18, 13], [42, 34, 29, 23, 21, 19, 15], [38, 35, 34, 31, 30, 29, 22, 21, 20, 19], [42, 34, 29, 25, 23, 15], [34, 30, 29, 27, 25, 22, 21, 16], [42, 35, 34, 30, 29, 23, 21, 19], [38, 34, 33, 27, 26, 25, 22, 21], [42, 38, 35, 33, 32, 29, 28, 27, 26], [35, 34, 28, 25, 22, 19], [30, 16], [38, 36, 35, 33, 32, 28, 26], [36, 34, 33, 32, 28, 26, 25], [46, 41, 40, 29, 27], [53, 46, 41, 36, 33, 26], [46, 40, 32, 27], [43, 41, 37, 36, 28], [46, 43, 37, 36, 32], [38, 32, 27], [43, 38, 33, 32], [53, 45, 43, 41, 40, 39], [45, 43, 37], [53, 37, 36], [54, 53, 52, 50, 48, 46, 40], [45, 43, 39], [45, 43, 39], [53, 43, 39], [56, 53, 50, 47, 45, 41], [56, 50, 45, 39], [56, 50, 45, 39], [56, 54, 53, 52, 50, 48, 47, 44], [56, 50, 39], [56, 39], [53, 47, 41], [54, 52, 48, 47, 44], [56, 47, 44], [62, 60, 54, 52, 44], [64, 60, 59, 58, 56, 53, 51], [60, 56, 54, 51, 50, 49], [67, 55, 51, 49], [74, 60, 57, 49], [70, 55, 49], [72, 70, 68, 64, 62, 61, 60, 59], [77, 74, 73, 70, 68, 66, 63, 59, 58], [77, 72, 69, 68, 66, 63, 61, 58], [74, 71, 69, 68, 63, 62, 58], [74, 72, 70, 68, 61, 57], [77, 73, 72, 69, 66, 63, 58], [78, 77, 71, 69, 67, 66, 65, 63], [75, 73, 71, 69, 63], [85, 84, 77, 71, 64], [79, 78, 75, 69, 63], [75, 71, 65, 63], [79, 78, 75, 65], [85, 78, 75, 65], [85, 71, 66], [87, 85, 80, 79, 75, 73], [85, 81, 79, 77, 66], [85, 83, 82, 80, 76], [83, 81, 80, 79, 78], [84, 82, 80, 76], [90, 87, 86, 84, 83, 82, 80], [86, 81, 80, 75], [89, 85, 84, 83, 78], [83, 82, 76], [101, 83, 76], [79, 76], [100, 98, 90, 89, 84, 78], [96, 95, 89, 88, 86, 84, 83, 81], [101, 99, 90, 86, 83, 82], [101, 97, 96, 95, 89, 88, 84, 83], [96, 89, 88, 87, 86, 81], [101, 97, 96, 93, 90, 88, 87, 83], [101, 99, 96, 94, 93, 88, 87, 86], [100, 99, 97, 94, 91, 82], [101, 100, 97, 96, 95, 94, 91, 89, 88], [98, 94, 93, 92, 90], [98, 96, 95, 93, 88], [100, 98, 94, 92, 91], [94, 93, 92, 91], [95, 93, 92, 91], [97, 92, 91], [95, 91], [92], [99], [91], [102], [102], [102], [102], [102], [102], [102], [102], [102], [102], [102], []]
letting durations = [[0], [6, 6, 10], [3, 6, 7], [4, 8, 9], [2, 2, 9], [1, 2, 10], [1, 2, 4], [1, 2, 5], [7, 9, 10], [1, 4, 10], [1, 3, 7], [7, 8, 10], [2, 9, 10], [1, 6, 8], [5, 6, 7], [2, 6, 7], [5, 7, 8], [4, 7, 8], [1, 1, 2], [4, 9, 10], [1, 5, 6], [2, 3, 7], [4, 6, 9], [4, 6, 9], [1, 2, 3], [3, 6, 10], [2, 6, 8], [3, 9, 10], [4, 7, 8], [3, 8, 10], [1, 9, 10], [1, 2, 8], [1, 3, 6], [3, 5, 9], [2, 8, 9], [1, 4, 7], [1, 5, 9], [1, 6, 10], [1, 3, 6], [1, 2, 5], [2, 5, 6], [3, 5, 9], [3, 5, 10], [4, 7, 10], [7, 7, 9], [1, 9, 10], [3, 3, 8], [2, 3, 7], [5, 6, 8], [3, 5, 10], [2, 5, 6], [4, 7, 8], [5, 6, 7], [5, 7, 7], [2, 6, 7], [1, 8, 9], [2, 3, 5], [1, 1, 5], [2, 3, 5], [1, 2, 5], [1, 7, 10], [3, 7, 9], [1, 3, 9], [3, 3, 8], [1, 2, 10], [3, 5, 9], [4, 6, 10], [3, 8, 10], [4, 4, 8], [2, 9, 9], [3, 9, 10], [2, 5, 9], [5, 8, 8], [1, 6, 9], [1, 1, 8], [1, 5, 8], [2, 6, 9], [7, 8, 9], [1, 4, 8], [3, 8, 9], [1, 4, 7], [2, 2, 3], [6, 9, 10], [3, 7, 10], [1, 3, 6], [5, 6, 8], [1, 5, 5], [1, 5, 7], [1, 8, 9], [3, 8, 10], [2, 4, 5], [2, 3, 4], [1, 5, 7], [2, 4, 6], [2, 5, 7], [3, 4, 5], [2, 5, 9], [5, 7, 10], [3, 5, 6], [3, 4, 5], [1, 4, 8], [0]]
letting resourceUsage = [[[0, 0, 0, 0]], [[4, 0, 0, 9], [0, 4, 0, 7], [0, 4, 0, 6]], [[4, 0, 0, 6], [0, 3, 9, 0], [0, 2, 0, 4]], [[3, 0, 0, 2], [1, 0, 3, 0], [0, 3, 0, 1]], [[5, 0, 5, 0], [0, 4, 5, 0], [4, 0, 5, 0]], [[4, 0, 7, 0], [3, 0, 5, 0], [0, 1, 3, 0]], [[0, 5, 0, 8], [1, 0, 5, 0], [0, 3, 5, 0]], [[0, 1, 0, 10], [0, 1, 4, 0], [2, 0, 0, 4]], [[4, 0, 9, 0], [0, 2, 5, 0], [0, 2, 4, 0]], [[0, 5, 5, 0], [0, 5, 3, 0], [2, 0, 1, 0]], [[0, 1, 7, 0], [0, 1, 0, 3], [0, 1, 5, 0]], [[0, 5, 6, 0], [0, 4, 0, 6], [4, 0, 1, 0]], [[3, 0, 10, 0], [0, 4, 7, 0], [1, 0, 6, 0]], [[5, 0, 0, 9], [4, 0, 0, 6], [4, 0, 0, 3]], [[0, 3, 0, 7], [1, 0, 0, 7], [0, 2, 0, 5]], [[4, 0, 0, 6], [4, 0, 0, 4], [0, 2, 3, 0]], [[4, 0, 0, 8], [0, 3, 1, 0], [0, 2, 1, 0]], [[4, 0, 7, 0], [3, 0, 6, 0], [2, 0, 6, 0]], [[0, 2, 3, 0], [4, 0, 0, 5], [3, 0, 0, 4]], [[4, 0, 6, 0], [0, 1, 0, 5], [0, 1, 0, 3]], [[3, 0, 0, 9], [2, 0, 0, 7], [2, 0, 2, 0]], [[2, 0, 0, 5], [0, 2, 0, 3], [1, 0, 0, 3]], [[3, 0, 0, 8], [3, 0, 0, 7], [0, 3, 2, 0]], [[0, 5, 0, 5], [0, 4, 6, 0], [0, 4, 0, 2]], [[0, 4, 7, 0], [0, 2, 5, 0], [0, 2, 3, 0]], [[0, 4, 0, 9], [4, 0, 0, 5], [0, 4, 4, 0]], [[0, 1, 4, 0], [0, 1, 0, 4], [0, 1, 2, 0]], [[5, 0, 0, 8], [2, 0, 4, 0], [2, 0, 3, 0]], [[4, 0, 0, 6], [0, 2, 0, 4], [0, 2, 0, 3]], [[3, 0, 8, 0], [2, 0, 5, 0], [2, 0, 0, 2]], [[2, 0, 0, 2], [0, 4, 0, 3], [0, 4, 0, 2]], [[0, 4, 0, 6], [0, 3, 0, 5], [4, 0, 3, 0]], [[0, 1, 8, 0], [2, 0, 0, 3], [2, 0, 1, 0]], [[5, 0, 0, 8], [4, 0, 9, 0], [0, 2, 0, 1]], [[0, 4, 0, 9], [3, 0, 5, 0], [3, 0, 2, 0]], [[3, 0, 8, 0], [3, 0, 6, 0], [2, 0, 6, 0]], [[0, 4, 3, 0], [4, 0, 2, 0], [3, 0, 0, 1]], [[0, 4, 9, 0], [0, 4, 5, 0], [3, 0, 0, 6]], [[3, 0, 5, 0], [3, 0, 0, 7], [3, 0, 0, 6]], [[4, 0, 6, 0], [0, 3, 3, 0], [0, 2, 0, 3]], [[1, 0, 0, 10], [0, 5, 1, 0], [0, 5, 0, 4]], [[4, 0, 0, 3], [0, 4, 0, 2], [1, 0, 5, 0]], [[0, 5, 0, 8], [4, 0, 0, 7], [0, 3, 0, 3]], [[4, 0, 4, 0], [3, 0, 3, 0], [0, 4, 3, 0]], [[0, 3, 8, 0], [1, 0, 0, 8], [0, 2, 5, 0]], [[2, 0, 0, 7], [0, 4, 0, 4], [0, 4, 2, 0]], [[5, 0, 0, 6], [2, 0, 7, 0], [0, 1, 0, 5]], [[0, 2, 0, 2], [0, 2, 0, 1], [0, 2, 1, 0]], [[4, 0, 0, 2], [0, 3, 3, 0], [2, 0, 1, 0]], [[3, 0, 0, 1], [0, 2, 0, 1], [2, 0, 5, 0]], [[0, 3, 7, 0], [3, 0, 4, 0], [3, 0, 1, 0]], [[0, 4, 6, 0], [0, 2, 5, 0], [0, 2, 4, 0]], [[1, 0, 9, 0], [0, 3, 7, 0], [0, 3, 0, 2]], [[0, 4, 6, 0], [0, 4, 0, 3], [3, 0, 2, 0]], [[5, 0, 10, 0], [0, 3, 7, 0], [3, 0, 0, 2]], [[4, 0, 7, 0], [3, 0, 5, 0], [0, 1, 5, 0]], [[0, 4, 0, 5], [0, 4, 0, 4], [0, 4, 2, 0]], [[0, 3, 7, 0], [3, 0, 6, 0], [3, 0, 3, 0]], [[0, 4, 0, 9], [2, 0, 7, 0], [0, 4, 0, 3]], [[0, 4, 9, 0], [0, 4, 6, 0], [0, 4, 4, 0]], [[0, 3, 6, 0], [0, 3, 5, 0], [2, 0, 0, 7]], [[5, 0, 0, 7], [5, 0, 0, 6], [5, 0, 5, 0]], [[4, 0, 8, 0], [4, 0, 0, 4], [4, 0, 7, 0]], [[2, 0, 0, 6], [0, 1, 7, 0], [2, 0, 0, 1]], [[2, 0, 0, 6], [2, 0, 0, 2], [0, 2, 0, 2]], [[0, 3, 7, 0], [1, 0, 0, 6], [1, 0, 2, 0]], [[4, 0, 7, 0], [3, 0, 5, 0], [3, 0, 4, 0]], [[0, 5, 5, 0], [0, 5, 4, 0], [2, 0, 3, 0]], [[5, 0, 5, 0], [0, 3, 0, 3], [0, 2, 0, 3]], [[0, 3, 0, 3], [0, 2, 4, 0], [1, 0, 0, 3]], [[2, 0, 8, 0], [0, 3, 7, 0], [2, 0, 5, 0]], [[2, 0, 0, 4], [1, 0, 0, 4], [1, 0, 0, 1]], [[4, 0, 5, 0], [4, 0, 0, 7], [0, 1, 3, 0]], [[0, 2, 4, 0], [3, 0, 3, 0], [1, 0, 2, 0]], [[1, 0, 5, 0], [0, 2, 0, 4], [0, 1, 1, 0]], [[0, 3, 0, 4], [3, 0, 0, 4], [3, 0, 8, 0]], [[2, 0, 0, 9], [0, 3, 8, 0], [1, 0, 0, 4]], [[0, 3, 0, 10], [0, 2, 0, 8], [4, 0, 1, 0]], [[2, 0, 0, 7], [2, 0, 6, 0], [2, 0, 0, 5]], [[3, 0, 0, 6], [0, 2, 10, 0], [0, 2, 0, 4]], [[4, 0, 0, 5], [4, 0, 0, 2], [0, 2, 0, 1]], [[0, 1, 0, 9], [0, 1, 3, 0], [1, 0, 3, 0]], [[0, 3, 5, 0], [0, 2, 4, 0], [3, 0, 3, 0]], [[0, 2, 10, 0], [0, 2, 8, 0], [0, 1, 0, 3]], [[5, 0, 0, 4], [0, 2, 9, 0], [0, 1, 7, 0]], [[0, 4, 0, 9], [2, 0, 0, 8], [1, 0, 0, 7]], [[0, 4, 0, 5], [2, 0, 0, 4], [2, 0, 5, 0]], [[0, 2, 0, 9], [0, 2, 3, 0], [0, 2, 1, 0]], [[3, 0, 1, 0], [0, 4, 1, 0], [2, 0, 0, 9]], [[1, 0, 0, 6], [0, 2, 0, 6], [0, 2, 0, 5]], [[0, 5, 0, 6], [0, 4, 0, 5], [3, 0, 2, 0]], [[0, 5, 6, 0], [4, 0, 6, 0], [0, 4, 0, 3]], [[2, 0, 2, 0], [0, 3, 1, 0], [2, 0, 0, 6]], [[2, 0, 10, 0], [1, 0, 0, 5], [0, 1, 0, 1]], [[5, 0, 0, 7], [4, 0, 0, 5], [3, 0, 0, 1]], [[5, 0, 3, 0], [5, 0, 2, 0], [5, 0, 1, 0]], [[0, 4, 0, 5], [0, 3, 3, 0], [0, 3, 2, 0]], [[5, 0, 5, 0], [4, 0, 0, 3], [4, 0, 3, 0]], [[0, 5, 9, 0], [0, 5, 0, 4], [0, 5, 0, 3]], [[2, 0, 5, 0], [0, 4, 3, 0], [0, 4, 0, 2]], [[0, 2, 0, 6], [1, 0, 0, 5], [0, 1, 0, 4]], [[0, 0, 0, 0]]]
